qbf_easy_train/easy_690_UNSAT.qdimacs
p cnf 37 108
a 2 5 6 0
e 1 3 4 7 8 9 10 11 12 13 14 15 16 17 18 19 20 21 22 23 24 25 26 27 28 29 30 31 32 33 34 35 36 37 0
3 1 0
3 -2 0
-1 2 -3 0
4 -3 0
4 3 0
-5 6 -7 0
5 -6 -7 0
-5 -6 7 0
5 6 7 0
7 -6 -8 0
-7 6 -8 0
7 6 8 0
-7 -6 8 0
10 8 0
10 9 0
-8 -9 -10 0
-11 -4 0
-11 -10 0
4 10 11 0
12 4 0
12 -4 0
11 12 -13 0
-11 -12 -13 0
11 -12 13 0
-11 12 13 0
2 6 -14 0
-2 -6 -14 0
2 -6 14 0
-2 6 14 0
15 -9 0
15 -14 0
9 14 -15 0
16 -15 0
16 5 0
15 -5 -16 0
-17 -16 0
-17 5 0
16 -5 17 0
18 -6 0
18 -6 0
6 -18 0
17 18 -19 0
-17 -18 -19 0
17 -18 19 0
-17 18 19 0
-20 13 0
-20 -19 0
-13 19 20 0
-18 1 -21 0
18 -1 -21 0
-18 -1 21 0
18 1 21 0
-23 15 0
-23 -22 0
-15 22 23 0
24 -21 0
24 -23 0
21 23 -24 0
-20 -24 -25 0
20 24 -25 0
-20 24 25 0
20 -24 25 0
-27 7 0
-27 26 0
-7 -26 27 0
-7 9 -28 0
7 -9 -28 0
-7 -9 28 0
7 9 28 0
-29 -18 0
-29 -2 0
18 2 29 0
-30 28 0
-30 29 0
-28 -29 30 0
-16 -31 -32 0
16 31 -32 0
-16 31 32 0
16 -31 32 0
-7 17 -33 0
7 -17 -33 0
-7 -17 33 0
7 17 33 0
-32 -33 -34 0
32 33 -34 0
-32 33 34 0
32 -33 34 0
35 30 0
35 -34 0
-30 34 -35 0
-27 -35 -36 0
27 35 -36 0
-27 35 36 0
27 -35 36 0
-37 25 0
-37 -36 0
-25 36 37 0
26 -25 12 -22 0
-36 35 23 -28 16 0
17 -26 -24 -20 14 0
37 -2 30 -22 -24 -26 -1 0
-17 1 -11 -29 0
6 9 -14 0
4 12 8 -13 27 32 0
-7 -4 36 -29 27 0
9 19 -20 0
3 36 17 -1 -25 10 -7 4 0
37 0
