sat_easy_train/easy_690_UNSAT.dimacs
p cnf 122 395
-4 2 0
-4 3 0
-2 -3 4 0
-5 -1 0
-5 4 0
1 -4 5 0
-7 6 0
-7 -2 0
-6 2 7 0
-8 5 0
-8 7 0
-5 -7 8 0
-11 9 0
-11 -10 0
-9 10 11 0
12 -4 -13 0
-12 4 -13 0
12 4 13 0
-12 -4 13 0
-11 13 -14 0
11 -13 -14 0
-11 -13 14 0
11 13 14 0
15 14 0
15 14 0
-14 -15 0
8 15 -16 0
-8 -15 -16 0
8 -15 16 0
-8 15 16 0
19 -18 0
19 -3 0
18 3 -19 0
-20 17 0
-20 19 0
-17 -19 20 0
-22 -21 0
-22 -14 0
21 14 22 0
9 -2 -23 0
-9 2 -23 0
9 2 23 0
-9 -2 23 0
24 22 0
24 -23 0
-22 23 -24 0
25 -20 0
25 -24 0
20 24 -25 0
26 16 0
26 25 0
-16 -25 -26 0
27 -13 -28 0
-27 13 -28 0
27 13 28 0
-27 -13 28 0
29 -4 0
29 -28 0
4 28 -29 0
30 -2 0
30 -12 0
2 12 -30 0
-31 5 0
-31 30 0
-5 -30 31 0
-23 -30 -32 0
23 30 -32 0
-23 30 32 0
23 -30 32 0
-33 -30 0
-33 19 0
30 -19 33 0
33 -21 -34 0
-33 21 -34 0
33 21 34 0
-33 -21 34 0
-35 -32 0
-35 -34 0
32 34 35 0
36 31 0
36 -35 0
-31 35 -36 0
37 4 0
37 2 0
-4 -2 -37 0
38 1 0
38 37 0
-1 -37 -38 0
41 -39 0
41 -40 0
39 40 -41 0
-38 41 -42 0
38 -41 -42 0
-38 -41 42 0
38 41 42 0
43 42 0
43 -39 0
-42 39 -43 0
-44 -36 0
-44 -43 0
36 43 44 0
-45 -29 0
-45 44 0
29 -44 45 0
46 47 0
-46 47 0
48 -12 0
48 37 0
12 -37 -48 0
49 -40 0
49 48 0
40 -48 -49 0
-47 -49 -50 0
47 49 -50 0
-47 49 50 0
47 -49 50 0
-51 45 0
-51 50 0
-45 -50 51 0
-10 -19 -52 0
10 19 -52 0
-10 19 52 0
10 -19 52 0
-53 -37 0
-53 -40 0
37 40 53 0
-54 -52 0
-54 53 0
52 -53 54 0
-55 -27 0
-55 23 0
27 -23 55 0
-5 -55 -56 0
5 55 -56 0
-5 55 56 0
5 -55 56 0
-57 -54 0
-57 -56 0
54 56 57 0
-18 47 -58 0
18 -47 -58 0
-18 -47 58 0
18 47 58 0
-59 57 0
-59 -58 0
-57 58 59 0
60 -30 0
60 23 0
30 -23 -60 0
-48 -46 -61 0
48 46 -61 0
-48 46 61 0
48 -46 61 0
-62 60 0
-62 -61 0
-60 61 62 0
-64 38 0
-64 63 0
-38 -63 64 0
-65 38 0
-65 13 0
-38 -13 65 0
66 -65 0
66 33 0
65 -33 -66 0
67 13 0
67 66 0
-13 -66 -67 0
68 -64 0
68 67 0
64 -67 -68 0
-69 62 0
-69 68 0
-62 -68 69 0
-37 -13 -70 0
37 13 -70 0
-37 13 70 0
37 -13 70 0
-71 -69 0
-71 -70 0
69 70 71 0
30 -12 -72 0
-30 12 -72 0
30 12 72 0
-30 -12 72 0
-73 2 0
-73 6 0
-2 -6 73 0
-74 -65 0
-74 -46 0
65 46 74 0
75 -73 0
75 -74 0
73 74 -75 0
-76 -72 0
-76 -75 0
72 75 76 0
77 1 0
77 -11 0
-1 11 -77 0
78 -77 0
78 17 0
77 -17 -78 0
-79 -7 0
-79 -9 0
7 9 79 0
80 -79 0
80 49 0
79 -49 -80 0
-78 -80 -81 0
78 80 -81 0
-78 80 81 0
78 -80 81 0
-82 -11 0
-82 -17 0
11 17 82 0
41 -40 -83 0
-41 40 -83 0
41 40 83 0
-41 -40 83 0
-84 9 0
-84 -6 0
-9 6 84 0
85 -83 0
85 84 0
83 -84 -85 0
-86 -10 0
-86 -37 0
10 37 86 0
85 86 -87 0
-85 -86 -87 0
85 -86 87 0
-85 86 87 0
-88 -41 0
-88 87 0
41 -87 88 0
-89 -40 0
-89 88 0
40 -88 89 0
6 -89 -90 0
-6 89 -90 0
6 89 90 0
-6 -89 90 0
91 -82 0
91 90 0
82 -90 -91 0
-92 5 0
-92 37 0
-5 -37 92 0
-93 92 0
-93 38 0
-92 -38 93 0
94 -91 0
94 93 0
91 -93 -94 0
95 -5 0
95 13 0
5 -13 -95 0
-94 -95 -96 0
94 95 -96 0
-94 95 96 0
94 -95 96 0
97 -81 0
97 -96 0
81 96 -97 0
-98 -76 0
-98 97 0
76 -97 98 0
71 -98 -99 0
-71 98 -99 0
71 98 99 0
-71 -98 99 0
100 59 0
100 99 0
-59 -99 -100 0
-51 100 -101 0
51 -100 -101 0
-51 -100 101 0
51 100 101 0
-102 -27 0
-102 -17 0
27 17 102 0
-103 -42 0
-103 -2 0
42 2 103 0
-104 -84 0
-104 103 0
84 -103 104 0
14 46 -105 0
-14 -46 -105 0
14 -46 105 0
-14 46 105 0
-104 -105 -106 0
104 105 -106 0
-104 105 106 0
104 -105 106 0
-107 -102 0
-107 -106 0
102 106 107 0
108 -5 0
108 86 0
5 -86 -108 0
109 18 0
109 -48 0
-18 48 -109 0
110 -109 0
110 -6 0
109 6 -110 0
111 -84 0
111 110 0
84 -110 -111 0
112 90 0
112 86 0
-90 -86 -112 0
113 -111 0
113 112 0
111 -112 -113 0
-115 -114 0
-115 19 0
114 -19 115 0
-116 -113 0
-116 -115 0
113 115 116 0
117 -108 0
117 -116 0
108 116 -117 0
-107 -117 -118 0
107 117 -118 0
-107 117 118 0
107 -117 118 0
-119 -84 0
-119 -86 0
84 86 119 0
120 -118 0
120 -119 0
118 119 -120 0
121 -101 0
121 -120 0
101 120 -121 0
-26 121 -122 0
26 -121 -122 0
-26 -121 122 0
26 121 122 0
-83 -117 66 27 67 0
-108 -81 -16 42 -121 -84 0
119 32 -26 85 0
-41 -63 0
105 -6 -70 73 0
34 2 0
94 10 81 103 0
-27 100 -52 -60 0
82 100 -1 -36 0
-8 -70 79 83 82 0
5 121 41 49 -122 68 0
-51 -88 -80 119 35 -109 0
-12 74 -42 0
23 80 -98 -1 -41 0
-113 83 0
97 75 82 -52 30 0
-82 94 -111 6 4 1 0
-76 -20 -83 0
81 -7 -113 0
-16 -100 88 -14 0
-20 12 0
-87 -113 12 6 0
20 55 -9 0
-105 8 44 -79 0
119 -46 0
-108 107 51 34 23 2 0
-99 32 0
-41 -58 67 -122 0
-42 78 18 0
-44 38 0
43 -62 41 99 68 0
33 104 0
53 96 -52 2 0
68 77 0
-63 79 12 21 -122 41 0
53 114 0
-55 46 0
9 91 -84 20 0
-78 -115 0
-1 -83 -88 -69 0
14 -19 60 0
70 92 0
-49 -44 -61 -38 -71 0
-8 -57 92 -72 81 0
-14 -78 -121 0
66 59 54 -45 76 0
51 7 -82 0
30 -61 -46 0
-79 89 21 -5 -86 120 0
39 69 -90 0
-1 31 -87 -76 35 -36 0
122 0
